NAME          COPTPROB
OBJSENSE
  MIN
ROWS
 N  __OBJ___
 L  C0      
 L  C1      
 L  C4      
 L  C5      
 L  C6      
 L  C7      
 L  C8      
 L  C10     
 L  C11     
 L  C15     
 L  C19     
 L  C21     
 L  C22     
 L  C24     
 L  C28     
 L  C30     
 L  C31     
 L  C33     
 L  C34     
 L  C36     
 L  C40     
 L  C47     
 L  C49     
 L  C51     
 L  C52     
 L  C55     
 L  C56     
 L  C57     
 L  C60     
 L  C62     
 L  C63     
 L  C64     
 L  C67     
 L  C68     
 L  C71     
 L  C73     
 L  C74     
 L  C80     
 L  C82     
 L  C83     
 L  C84     
 L  C85     
 L  C87     
 L  C90     
 L  C93     
 L  C94     
 L  C99     
 L  C100    
 L  C104    
 L  C105    
 L  C107    
 L  C110    
 L  C113    
 L  C114    
 L  C117    
 L  C118    
 L  C119    
 L  C120    
 L  C121    
 L  C123    
 L  C124    
 L  C126    
 L  C127    
 L  C128    
 L  C130    
 L  C134    
 L  C135    
 L  C137    
 L  C138    
 L  C139    
 L  C140    
 L  C141    
 L  C143    
 L  C144    
 L  C147    
 L  C148    
 L  C149    
 L  C150    
 L  C155    
 L  C158    
 L  C159    
 L  C164    
 L  C165    
 L  C166    
 L  C168    
 L  C172    
 L  C173    
 L  C174    
 L  C176    
 L  C181    
 L  C185    
 L  C186    
 L  C189    
 L  C191    
 L  C193    
 L  C194    
 L  C199    
 L  C200    
 L  C201    
 L  C203    
 L  C206    
 L  C207    
 L  C208    
 L  C209    
 L  C210    
 L  C211    
 L  C212    
 L  C214    
 L  C216    
 L  C218    
 L  C219    
 L  C223    
 L  C224    
 L  C225    
 L  C227    
 L  C228    
 L  C229    
 L  C231    
 L  C232    
 L  C233    
 L  C234    
 L  C237    
 L  C238    
 L  C239    
 L  C243    
 L  C244    
 L  C245    
 L  C246    
 L  C249    
 L  C251    
 L  C253    
 L  C254    
 L  C257    
 L  C260    
 L  C263    
 L  C264    
 L  C265    
 L  C266    
 L  C267    
 L  C268    
 L  C269    
 L  C271    
 L  C272    
 L  C273    
 L  C274    
 L  C276    
 L  C278    
 L  C279    
 L  C280    
 L  C281    
 L  C282    
 L  C284    
 L  C286    
 L  C287    
 L  C288    
 L  C289    
 L  C291    
 L  C295    
 L  C296    
 L  C297    
 L  C301    
 L  C302    
 L  C303    
 L  C308    
 L  C309    
 L  C310    
 L  C313    
 L  C320    
 L  C322    
 L  C324    
 L  C325    
 L  C328    
 L  C333    
 L  C334    
 L  C335    
 L  C341    
 L  C343    
 L  C345    
 L  C346    
 L  C348    
 L  C350    
 L  C352    
 L  C353    
 L  C354    
 L  C355    
 L  C357    
 L  C359    
 L  C362    
 L  C363    
 L  C366    
 L  C367    
 L  C371    
 L  C372    
 L  C373    
 L  C375    
 L  C381    
 L  C383    
 L  C387    
 L  C388    
 L  C389    
 L  C390    
 L  C393    
 L  C394    
 L  C396    
 L  C398    
COLUMNS
    MARKER    'MARKER'                 'INTORG'
    x1        __OBJ___  75
    x1        C4        -1
    x1        C10       -1
    x1        C237      -1
    x1        C366      -1
    x12       __OBJ___  108
    x12       C118      -1
    x12       C121      -1
    x12       C371      -1
    x13       __OBJ___  103
    x13       C30       -1
    x13       C93       -1
    x13       C148      -1
    x13       C280      -1
    x38       __OBJ___  70
    x38       C52       -1
    x38       C295      -1
    x38       C383      -1
    x57       __OBJ___  8
    x57       C200      -1
    x57       C267      -1
    x80       __OBJ___  3
    x80       C5        -1
    x80       C40       -1
    x80       C105      -1
    x80       C194      -1
    x80       C211      -1
    x80       C284      -1
    x86       __OBJ___  50
    x86       C218      -1
    x112      __OBJ___  45
    x112      C99       -1
    x112      C124      -1
    x112      C164      -1
    x112      C238      -1
    x112      C346      -1
    x124      __OBJ___  59
    x124      C52       -1
    x124      C243      -1
    x124      C393      -1
    x131      __OBJ___  75
    x131      C34       -1
    x131      C110      -1
    x131      C147      -1
    x131      C186      -1
    x131      C284      -1
    x159      __OBJ___  20
    x159      C117      -1
    x159      C149      -1
    x165      __OBJ___  44
    x165      C113      -1
    x165      C260      -1
    x167      __OBJ___  94
    x167      C71       -1
    x167      C120      -1
    x167      C128      -1
    x167      C203      -1
    x167      C282      -1
    x170      __OBJ___  6
    x170      C11       -1
    x170      C375      -1
    x172      __OBJ___  15
    x172      C219      -1
    x172      C313      -1
    x172      C362      -1
    x185      __OBJ___  107
    x185      C40       -1
    x185      C148      -1
    x185      C174      -1
    x185      C348      -1
    x185      C396      -1
    x188      __OBJ___  50
    x188      C194      -1
    x188      C232      -1
    x206      __OBJ___  29
    x206      C31       -1
    x206      C231      -1
    x206      C352      -1
    x209      __OBJ___  70
    x209      C99       -1
    x209      C281      -1
    x237      __OBJ___  41
    x237      C172      -1
    x237      C363      -1
    x242      __OBJ___  96
    x242      C254      -1
    x242      C350      -1
    x246      __OBJ___  153
    x246      C51       -1
    x246      C297      -1
    x246      C359      -1
    x265      __OBJ___  227
    x265      C34       -1
    x265      C36       -1
    x265      C159      -1
    x265      C209      -1
    x265      C249      -1
    x265      C251      -1
    x266      __OBJ___  136
    x266      C30       -1
    x266      C56       -1
    x266      C164      -1
    x266      C333      -1
    x271      __OBJ___  101
    x271      C118      -1
    x271      C233      -1
    x308      __OBJ___  65
    x308      C147      -1
    x308      C206      -1
    x308      C209      -1
    x308      C264      -1
    x308      C313      -1
    x326      __OBJ___  105
    x326      C74       -1
    x326      C119      -1
    x326      C279      -1
    x338      __OBJ___  146
    x338      C127      -1
    x338      C130      -1
    x338      C322      -1
    x381      __OBJ___  43
    x381      C7        -1
    x381      C21       -1
    x381      C127      -1
    x381      C147      -1
    x413      __OBJ___  1
    x413      C286      -1
    x413      C355      -1
    x419      __OBJ___  74
    x419      C123      -1
    x419      C228      -1
    x419      C372      -1
    x455      __OBJ___  115
    x455      C15       -1
    x455      C246      -1
    x455      C389      -1
    x487      __OBJ___  53
    x487      C5        -1
    x487      C8        -1
    x520      __OBJ___  55
    x520      C34       -1
    x520      C56       -1
    x520      C57       -1
    x520      C334      -1
    x534      __OBJ___  8
    x534      C141      -1
    x534      C310      -1
    x537      __OBJ___  52
    x537      C90       -1
    x537      C121      -1
    x537      C218      -1
    x537      C219      -1
    x537      C398      -1
    x550      __OBJ___  84
    x550      C31       -1
    x550      C223      -1
    x550      C227      -1
    x550      C301      -1
    x562      __OBJ___  134
    x562      C1        -1
    x562      C113      -1
    x562      C254      -1
    x592      __OBJ___  3
    x592      C15       -1
    x592      C28       -1
    x592      C110      -1
    x592      C155      -1
    x592      C341      -1
    x610      __OBJ___  65
    x610      C7        -1
    x610      C19       -1
    x610      C127      -1
    x610      C394      -1
    x634      __OBJ___  50
    x634      C90       -1
    x634      C212      -1
    x634      C345      -1
    x634      C390      -1
    x705      __OBJ___  1
    x705      C82       -1
    x705      C203      -1
    x716      __OBJ___  52
    x716      C40       -1
    x716      C127      -1
    x716      C396      -1
    x731      __OBJ___  94
    x731      C254      -1
    x731      C295      -1
    x737      __OBJ___  31
    x737      C22       -1
    x737      C224      -1
    x737      C243      -1
    x737      C280      -1
    x741      __OBJ___  96
    x741      C51       -1
    x741      C57       -1
    x741      C310      -1
    x758      __OBJ___  21
    x758      C148      -1
    x758      C211      -1
    x758      C345      -1
    x834      __OBJ___  191
    x834      C62       -1
    x834      C233      -1
    x834      C246      -1
    x834      C254      -1
    x850      __OBJ___  121
    x850      C51       -1
    x850      C114      -1
    x850      C263      -1
    x850      C343      -1
    x850      C373      -1
    x856      __OBJ___  10
    x856      C5        -1
    x856      C139      -1
    x856      C228      -1
    x856      C249      -1
    x856      C273      -1
    x865      __OBJ___  22
    x865      C7        -1
    x865      C155      -1
    x865      C303      -1
    x866      __OBJ___  41
    x866      C57       -1
    x866      C244      -1
    x871      __OBJ___  39
    x871      C165      -1
    x871      C308      -1
    x871      C310      -1
    x890      __OBJ___  29
    x890      C266      -1
    x890      C343      -1
    x906      __OBJ___  38
    x906      C60       -1
    x906      C150      -1
    x906      C310      -1
    x912      __OBJ___  91
    x912      C104      -1
    x912      C264      -1
    x948      __OBJ___  68
    x948      C67       -1
    x981      __OBJ___  108
    x981      C49       -1
    x981      C123      -1
    x981      C210      -1
    x981      C301      -1
    x981      C325      -1
    x981      C362      -1
    x983      __OBJ___  65
    x983      C127      -1
    x983      C168      -1
    x1000     __OBJ___  32
    x1000     C396      -1
    x1024     __OBJ___  35
    x1024     C124      -1
    x1024     C244      -1
    x1070     __OBJ___  79
    x1070     C8        -1
    x1070     C11       -1
    x1070     C231      -1
    x1070     C232      -1
    x1070     C308      -1
    x1075     __OBJ___  117
    x1075     C51       -1
    x1075     C199      -1
    x1075     C352      -1
    x1085     __OBJ___  9
    x1085     C83       -1
    x1085     C139      -1
    x1085     C150      -1
    x1085     C229      -1
    x1085     C359      -1
    x1087     __OBJ___  25
    x1087     C60       -1
    x1087     C99       -1
    x1087     C372      -1
    x1087     C381      -1
    x1105     __OBJ___  4
    x1105     C135      -1
    x1105     C172      -1
    x1105     C328      -1
    x1105     C334      -1
    x1127     __OBJ___  28
    x1127     C52       -1
    x1127     C113      -1
    x1129     __OBJ___  40
    x1129     C73       -1
    x1129     C123      -1
    x1129     C137      -1
    x1143     __OBJ___  44
    x1143     C249      -1
    x1143     C350      -1
    x1146     __OBJ___  162
    x1146     C52       -1
    x1146     C140      -1
    x1146     C324      -1
    x1146     C325      -1
    x1158     __OBJ___  112
    x1158     C126      -1
    x1158     C309      -1
    x1158     C348      -1
    x1158     C389      -1
    x1168     __OBJ___  59
    x1168     C257      -1
    x1168     C303      -1
    x1179     __OBJ___  81
    x1179     C55       -1
    x1179     C166      -1
    x1183     __OBJ___  12
    x1183     C80       -1
    x1183     C286      -1
    x1187     __OBJ___  88
    x1187     C1        -1
    x1187     C64       -1
    x1187     C158      -1
    x1187     C295      -1
    x1187     C367      -1
    x1190     __OBJ___  89
    x1190     C232      -1
    x1190     C260      -1
    x1190     C345      -1
    x1209     __OBJ___  66
    x1209     C64       -1
    x1209     C237      -1
    x1209     C348      -1
    x1210     __OBJ___  79
    x1210     C60       -1
    x1210     C137      -1
    x1210     C216      -1
    x1211     __OBJ___  65
    x1211     C117      -1
    x1211     C239      -1
    x1211     C335      -1
    x1211     C348      -1
    x1229     __OBJ___  78
    x1229     C107      -1
    x1229     C138      -1
    x1229     C388      -1
    x1246     __OBJ___  44
    x1246     C201      -1
    x1246     C245      -1
    x1246     C371      -1
    x1260     __OBJ___  21
    x1260     C100      -1
    x1260     C114      -1
    x1260     C267      -1
    x1291     __OBJ___  120
    x1291     C8        -1
    x1291     C322      -1
    x1300     __OBJ___  40
    x1300     C107      -1
    x1300     C155      -1
    x1300     C288      -1
    x1330     __OBJ___  30
    x1330     C269      -1
    x1330     C291      -1
    x1348     __OBJ___  97
    x1348     C47       -1
    x1348     C206      -1
    x1348     C216      -1
    x1348     C279      -1
    x1370     __OBJ___  121
    x1370     C260      -1
    x1370     C297      -1
    x1370     C354      -1
    x1405     __OBJ___  92
    x1405     C295      -1
    x1405     C372      -1
    x1412     __OBJ___  9
    x1412     C114      -1
    x1412     C398      -1
    x1427     __OBJ___  184
    x1427     C19       -1
    x1427     C74       -1
    x1427     C199      -1
    x1427     C345      -1
    x1427     C388      -1
    x1429     __OBJ___  2
    x1429     C130      -1
    x1429     C289      -1
    x1431     __OBJ___  78
    x1431     C62       -1
    x1431     C325      -1
    x1443     __OBJ___  60
    x1443     C232      -1
    x1443     C276      -1
    x1443     C297      -1
    x1445     __OBJ___  13
    x1445     C121      -1
    x1445     C124      -1
    x1445     C302      -1
    x1445     C352      -1
    x1458     __OBJ___  133
    x1458     C246      -1
    x1458     C363      -1
    x1467     __OBJ___  125
    x1467     C5        -1
    x1467     C34       -1
    x1467     C158      -1
    x1467     C203      -1
    x1467     C324      -1
    x1490     __OBJ___  106
    x1490     C110      -1
    x1490     C114      -1
    x1490     C117      -1
    x1490     C353      -1
    x1545     __OBJ___  187
    x1545     C40       -1
    x1545     C62       -1
    x1545     C128      -1
    x1545     C313      -1
    x1545     C341      -1
    x1545     C366      -1
    x1589     __OBJ___  47
    x1589     C150      -1
    x1589     C281      -1
    x1589     C328      -1
    x1589     C341      -1
    x1616     __OBJ___  47
    x1616     C99       -1
    x1616     C203      -1
    x1616     C396      -1
    x1626     __OBJ___  9
    x1626     C144      -1
    x1626     C165      -1
    x1626     C335      -1
    x1626     C373      -1
    x1630     __OBJ___  72
    x1630     C1        -1
    x1630     C387      -1
    x1639     __OBJ___  62
    x1639     C279      -1
    x1639     C341      -1
    x1667     __OBJ___  51
    x1667     C84       -1
    x1667     C209      -1
    x1667     C263      -1
    x1706     __OBJ___  143
    x1706     C104      -1
    x1706     C126      -1
    x1706     C282      -1
    x1708     __OBJ___  57
    x1708     C49       -1
    x1708     C71       -1
    x1708     C249      -1
    x1708     C308      -1
    x1734     __OBJ___  42
    x1734     C84       -1
    x1734     C272      -1
    x1762     __OBJ___  69
    x1762     C274      -1
    x1762     C287      -1
    x1786     __OBJ___  6
    x1786     C100      -1
    x1822     __OBJ___  106
    x1822     C87       -1
    x1822     C244      -1
    x1822     C246      -1
    x1834     __OBJ___  71
    x1834     C302      -1
    x1834     C348      -1
    x1834     C354      -1
    x1847     __OBJ___  118
    x1847     C4        -1
    x1847     C207      -1
    x1847     C253      -1
    x1847     C265      -1
    x1868     __OBJ___  138
    x1868     C5        -1
    x1868     C30       -1
    x1868     C67       -1
    x1868     C209      -1
    x1868     C271      -1
    x1910     __OBJ___  37
    x1910     C104      -1
    x1910     C211      -1
    x1910     C228      -1
    x1934     __OBJ___  72
    x1934     C272      -1
    x1934     C287      -1
    x1935     __OBJ___  49
    x1935     C40       -1
    x1935     C199      -1
    x1941     __OBJ___  38
    x1941     C117      -1
    x1941     C147      -1
    x1941     C278      -1
    x1947     __OBJ___  41
    x1947     C60       -1
    x1947     C174      -1
    x1947     C237      -1
    x1947     C239      -1
    x1947     C268      -1
    x2002     __OBJ___  15
    x2002     C120      -1
    x2002     C228      -1
    x2006     __OBJ___  22
    x2006     C117      -1
    x2006     C191      -1
    x2006     C274      -1
    x2006     C309      -1
    x2006     C357      -1
    x2012     __OBJ___  2
    x2012     C135      -1
    x2012     C239      -1
    x2012     C282      -1
    x2027     __OBJ___  67
    x2027     C181      -1
    x2027     C251      -1
    x2027     C362      -1
    x2034     __OBJ___  19
    x2034     C73       -1
    x2034     C100      -1
    x2034     C296      -1
    x2034     C325      -1
    x2041     __OBJ___  59
    x2041     C56       -1
    x2041     C269      -1
    x2041     C320      -1
    x2062     __OBJ___  29
    x2062     C49       -1
    x2062     C63       -1
    x2062     C181      -1
    x2062     C276      -1
    x2062     C333      -1
    x2066     __OBJ___  73
    x2066     C164      -1
    x2066     C214      -1
    x2066     C287      -1
    x2072     __OBJ___  9
    x2072     C24       -1
    x2072     C229      -1
    x2074     __OBJ___  47
    x2074     C83       -1
    x2074     C388      -1
    x2091     __OBJ___  56
    x2091     C288      -1
    x2091     C390      -1
    x2094     __OBJ___  234
    x2094     C322      -1
    x2094     C334      -1
    x2094     C354      -1
    x2102     __OBJ___  39
    x2102     C57       -1
    x2102     C85       -1
    x2102     C121      -1
    x2117     __OBJ___  150
    x2117     C63       -1
    x2117     C83       -1
    x2117     C233      -1
    x2117     C265      -1
    x2117     C343      -1
    x2117     C393      -1
    x2121     __OBJ___  29
    x2121     C93       -1
    x2121     C174      -1
    x2121     C394      -1
    x2126     __OBJ___  9
    x2126     C93       -1
    x2126     C143      -1
    x2126     C166      -1
    x2126     C231      -1
    x2137     __OBJ___  61
    x2137     C128      -1
    x2138     __OBJ___  73
    x2138     C121      -1
    x2138     C200      -1
    x2138     C208      -1
    x2138     C229      -1
    x2138     C390      -1
    x2148     __OBJ___  46
    x2148     C22       -1
    x2148     C185      -1
    x2148     C284      -1
    x2150     __OBJ___  46
    x2150     C244      -1
    x2150     C389      -1
    x2154     __OBJ___  18
    x2154     C134      -1
    x2154     C207      -1
    x2154     C239      -1
    x2156     __OBJ___  8
    x2156     C398      -1
    x2173     __OBJ___  80
    x2173     C173      -1
    x2173     C207      -1
    x2173     C341      -1
    x2191     __OBJ___  46
    x2191     C266      -1
    x2191     C301      -1
    x2209     __OBJ___  68
    x2209     C141      -1
    x2209     C189      -1
    x2209     C324      -1
    x2210     __OBJ___  22
    x2210     C68       -1
    x2210     C273      -1
    x2225     __OBJ___  29
    x2225     C189      -1
    x2225     C267      -1
    x2238     __OBJ___  93
    x2238     C6        -1
    x2238     C130      -1
    x2238     C168      -1
    x2238     C206      -1
    x2239     __OBJ___  91
    x2239     C168      -1
    x2239     C280      -1
    x2239     C335      -1
    x2241     __OBJ___  89
    x2241     C0        -1
    x2241     C110      -1
    x2241     C239      -1
    x2241     C333      -1
    x2249     __OBJ___  6
    x2249     C201      -1
    x2249     C253      -1
    x2249     C286      -1
    x2266     __OBJ___  192
    x2266     C47       -1
    x2266     C233      -1
    x2266     C266      -1
    x2266     C357      -1
    x2274     __OBJ___  116
    x2274     C1        -1
    x2274     C207      -1
    x2274     C272      -1
    x2284     __OBJ___  4
    x2284     C144      -1
    x2284     C193      -1
    x2284     C225      -1
    x2284     C291      -1
    x2284     C320      -1
    x2286     __OBJ___  53
    x2286     C211      -1
    x2286     C278      -1
    x2286     C281      -1
    x2298     __OBJ___  32
    x2298     C71       -1
    x2298     C214      -1
    x2298     C268      -1
    x2301     __OBJ___  119
    x2301     C159      -1
    x2301     C212      -1
    x2301     C279      -1
    x2311     __OBJ___  86
    x2311     C33       -1
    x2311     C181      -1
    x2311     C353      -1
    x2311     C381      -1
    x2354     __OBJ___  16
    x2354     C19       -1
    x2354     C216      -1
    x2406     __OBJ___  55
    x2406     C10       -1
    x2406     C211      -1
    x2406     C245      -1
    x2406     C354      -1
    x2442     __OBJ___  38
    x2442     C80       -1
    x2442     C130      -1
    x2442     C366      -1
    x2463     __OBJ___  132
    x2463     C22       -1
    x2463     C126      -1
    x2475     __OBJ___  40
    x2475     C138      -1
    x2475     C176      -1
    x2475     C186      -1
    x2475     C291      -1
    x2475     C353      -1
    x2476     __OBJ___  17
    x2476     C114      -1
    x2476     C193      -1
    x2476     C234      -1
    x2476     C268      -1
    x2476     C289      -1
    x2483     __OBJ___  101
    x2483     C229      -1
    x2483     C289      -1
    x2483     C383      -1
    x2483     C387      -1
    x2492     __OBJ___  12
    x2492     C85       -1
    x2492     C94       -1
    x2492     C328      -1
    x2492     C333      -1
    x2520     __OBJ___  83
    x2520     C165      -1
    x2520     C185      -1
    x2520     C218      -1
    x2520     C274      -1
    x2520     C286      -1
    x2525     __OBJ___  52
    x2525     C232      -1
    x2525     C303      -1
    x2525     C346      -1
    x2541     __OBJ___  66
    x2541     C6        -1
    x2541     C90       -1
    x2559     __OBJ___  2
    x2559     C63       -1
    x2559     C87       -1
    x2559     C227      -1
    x2573     __OBJ___  10
    x2573     C73       -1
    x2573     C83       -1
    x2573     C176      -1
    x2573     C308      -1
    x2590     __OBJ___  154
    x2590     C67       -1
    x2590     C159      -1
    x2590     C208      -1
    x2590     C253      -1
    x2599     __OBJ___  115
    x2599     C127      -1
    x2599     C224      -1
    x2599     C322      -1
    x2599     C363      -1
    x2609     __OBJ___  42
    x2609     C185      -1
    x2609     C225      -1
    x2609     C389      -1
    x2610     __OBJ___  73
    x2610     C55       -1
    x2610     C393      -1
    x2623     __OBJ___  120
    x2623     C147      -1
    x2623     C149      -1
    x2623     C159      -1
    x2623     C229      -1
    x2627     __OBJ___  106
    x2627     C118      -1
    x2627     C214      -1
    x2627     C218      -1
    x2627     C334      -1
    x2629     __OBJ___  112
    x2629     C10       -1
    x2629     C105      -1
    x2629     C164      -1
    x2629     C301      -1
    x2629     C398      -1
    x2659     __OBJ___  46
    x2659     C80       -1
    x2659     C94       -1
    x2659     C138      -1
    x2659     C296      -1
    x2663     __OBJ___  40
    x2663     C82       -1
    x2663     C174      -1
    x2663     C251      -1
    x2663     C268      -1
    x2674     __OBJ___  90
    x2674     C0        -1
    x2674     C158      -1
    x2674     C191      -1
    x2679     __OBJ___  180
    x2679     C36       -1
    x2679     C68       -1
    x2679     C343      -1
    x2679     C359      -1
    x2681     __OBJ___  30
    x2681     C33       -1
    x2681     C158      -1
    x2681     C207      -1
    x2681     C289      -1
    x2696     __OBJ___  1
    x2696     C85       -1
    x2696     C134      -1
    x2696     C186      -1
    x2696     C208      -1
    x2711     __OBJ___  80
    x2711     C297      -1
    x2711     C348      -1
    x2711     C352      -1
    x2715     __OBJ___  78
    x2715     C22       -1
    x2715     C257      -1
    x2717     __OBJ___  29
    x2717     C119      -1
    x2717     C280      -1
    x2730     __OBJ___  71
    x2730     C67       -1
    x2730     C375      -1
    x2733     __OBJ___  221
    x2733     C10       -1
    x2733     C30       -1
    x2733     C47       -1
    x2734     __OBJ___  6
    x2734     C148      -1
    x2734     C223      -1
    x2737     __OBJ___  35
    x2737     C271      -1
    x2745     __OBJ___  36
    x2745     C234      -1
    x2745     C280      -1
    x2745     C367      -1
    x2746     __OBJ___  78
    x2746     C138      -1
    x2746     C279      -1
    x2768     __OBJ___  275
    x2768     C33       -1
    x2768     C36       -1
    x2768     C138      -1
    x2768     C266      -1
    x2800     __OBJ___  110
    x2800     C144      -1
    x2800     C159      -1
    x2800     C353      -1
    x2803     __OBJ___  25
    x2803     C210      -1
    x2803     C237      -1
    x2838     __OBJ___  62
    x2838     C21       -1
    x2838     C24       -1
    x2838     C28       -1
    x2838     C139      -1
    x2838     C173      -1
    x2847     __OBJ___  85
    x2847     C143      -1
    x2847     C238      -1
    x2847     C271      -1
    x2876     __OBJ___  57
    x2876     C140      -1
    x2876     C233      -1
    x2876     C284      -1
    x2914     __OBJ___  55
    x2914     C8        -1
    x2914     C31       -1
    x2914     C389      -1
    x2939     __OBJ___  103
    x2939     C159      -1
    x2939     C206      -1
    x2939     C237      -1
    x2939     C254      -1
    x2987     __OBJ___  57
    x2987     C94       -1
    x2987     C232      -1
    x2987     C355      -1
    x3004     __OBJ___  35
    x3004     C387      -1
    x3012     __OBJ___  51
    x3012     C4        -1
    x3012     C228      -1
    x3012     C328      -1
    x3027     __OBJ___  81
    x3027     C74       -1
    x3027     C100      -1
    x3027     C251      -1
    x3063     __OBJ___  14
    x3063     C147      -1
    x3063     C375      -1
    x3085     __OBJ___  51
    x3085     C348      -1
    x3094     __OBJ___  76
    x3094     C281      -1
    x3094     C295      -1
    x3104     __OBJ___  38
    x3104     C150      -1
    x3104     C214      -1
    x3104     C224      -1
    x3117     __OBJ___  191
    x3117     C36       -1
    x3117     C82       -1
    x3117     C260      -1
    x3117     C334      -1
    x3138     __OBJ___  25
    x3138     C185      -1
    x3138     C288      -1
    x3153     __OBJ___  55
    x3153     C22       -1
    x3153     C113      -1
    x3153     C265      -1
    x3167     __OBJ___  12
    x3167     C100      -1
    x3167     C194      -1
    x3167     C237      -1
    x3182     __OBJ___  51
    x3182     C257      -1
    x3182     C265      -1
    x3182     C267      -1
    MARKER    'MARKER'                 'INTEND'
RHS
    RHS       __OBJ___  -2044
    RHS       C0        -1
    RHS       C1        -1
    RHS       C4        -1
    RHS       C5        -1
    RHS       C6        -1
    RHS       C7        -1
    RHS       C8        -1
    RHS       C10       -1
    RHS       C11       -1
    RHS       C15       -1
    RHS       C19       -1
    RHS       C21       -1
    RHS       C22       -1
    RHS       C24       -1
    RHS       C28       -1
    RHS       C30       -1
    RHS       C31       -1
    RHS       C33       -1
    RHS       C34       -1
    RHS       C36       -1
    RHS       C40       -1
    RHS       C47       -1
    RHS       C49       -1
    RHS       C51       -1
    RHS       C52       -1
    RHS       C55       -1
    RHS       C56       -1
    RHS       C57       -1
    RHS       C60       -1
    RHS       C62       -1
    RHS       C63       -1
    RHS       C64       -1
    RHS       C67       -1
    RHS       C68       -1
    RHS       C71       -1
    RHS       C73       -1
    RHS       C74       -1
    RHS       C80       -1
    RHS       C82       -1
    RHS       C83       -1
    RHS       C84       -1
    RHS       C85       -1
    RHS       C87       -1
    RHS       C90       -1
    RHS       C93       -1
    RHS       C94       -1
    RHS       C99       -1
    RHS       C100      -1
    RHS       C104      -1
    RHS       C105      -1
    RHS       C107      -1
    RHS       C110      -1
    RHS       C113      -1
    RHS       C114      -1
    RHS       C117      -1
    RHS       C118      -1
    RHS       C119      -1
    RHS       C120      -1
    RHS       C121      -1
    RHS       C123      -1
    RHS       C124      -1
    RHS       C126      -1
    RHS       C127      -1
    RHS       C128      -1
    RHS       C130      -1
    RHS       C134      -1
    RHS       C135      -1
    RHS       C137      -1
    RHS       C138      -1
    RHS       C139      -1
    RHS       C140      -1
    RHS       C141      -1
    RHS       C143      -1
    RHS       C144      -1
    RHS       C147      -1
    RHS       C148      -1
    RHS       C149      -1
    RHS       C150      -1
    RHS       C155      -1
    RHS       C158      -1
    RHS       C159      -1
    RHS       C164      -1
    RHS       C165      -1
    RHS       C166      -1
    RHS       C168      -1
    RHS       C172      -1
    RHS       C173      -1
    RHS       C174      -1
    RHS       C176      -1
    RHS       C181      -1
    RHS       C185      -1
    RHS       C186      -1
    RHS       C189      -1
    RHS       C191      -1
    RHS       C193      -1
    RHS       C194      -1
    RHS       C199      -1
    RHS       C200      -1
    RHS       C201      -1
    RHS       C203      -1
    RHS       C206      -1
    RHS       C207      -1
    RHS       C208      -1
    RHS       C209      -1
    RHS       C210      -1
    RHS       C211      -1
    RHS       C212      -1
    RHS       C214      -1
    RHS       C216      -1
    RHS       C218      -1
    RHS       C219      -1
    RHS       C223      -1
    RHS       C224      -1
    RHS       C225      -1
    RHS       C227      -1
    RHS       C228      -1
    RHS       C229      -1
    RHS       C231      -1
    RHS       C232      -1
    RHS       C233      -1
    RHS       C234      -1
    RHS       C237      -1
    RHS       C238      -1
    RHS       C239      -1
    RHS       C243      -1
    RHS       C244      -1
    RHS       C245      -1
    RHS       C246      -1
    RHS       C249      -1
    RHS       C251      -1
    RHS       C253      -1
    RHS       C254      -1
    RHS       C257      -1
    RHS       C260      -1
    RHS       C263      -1
    RHS       C264      -1
    RHS       C265      -1
    RHS       C266      -1
    RHS       C267      -1
    RHS       C268      -1
    RHS       C269      -1
    RHS       C271      -1
    RHS       C272      -1
    RHS       C273      -1
    RHS       C274      -1
    RHS       C276      -1
    RHS       C278      -1
    RHS       C279      -1
    RHS       C280      -1
    RHS       C281      -1
    RHS       C282      -1
    RHS       C284      -1
    RHS       C286      -1
    RHS       C287      -1
    RHS       C288      -1
    RHS       C289      -1
    RHS       C291      -1
    RHS       C295      -1
    RHS       C296      -1
    RHS       C297      -1
    RHS       C301      -1
    RHS       C302      -1
    RHS       C303      -1
    RHS       C308      -1
    RHS       C309      -1
    RHS       C310      -1
    RHS       C313      -1
    RHS       C320      -1
    RHS       C322      -1
    RHS       C324      -1
    RHS       C325      -1
    RHS       C328      -1
    RHS       C333      -1
    RHS       C334      -1
    RHS       C335      -1
    RHS       C341      -1
    RHS       C343      -1
    RHS       C345      -1
    RHS       C346      -1
    RHS       C348      -1
    RHS       C350      -1
    RHS       C352      -1
    RHS       C353      -1
    RHS       C354      -1
    RHS       C355      -1
    RHS       C357      -1
    RHS       C359      -1
    RHS       C362      -1
    RHS       C363      -1
    RHS       C366      -1
    RHS       C367      -1
    RHS       C371      -1
    RHS       C372      -1
    RHS       C373      -1
    RHS       C375      -1
    RHS       C381      -1
    RHS       C383      -1
    RHS       C387      -1
    RHS       C388      -1
    RHS       C389      -1
    RHS       C390      -1
    RHS       C393      -1
    RHS       C394      -1
    RHS       C396      -1
    RHS       C398      -1
BOUNDS
 UP BOUND     x1        1
 UP BOUND     x12       1
 UP BOUND     x13       1
 UP BOUND     x38       1
 UP BOUND     x57       1
 UP BOUND     x80       1
 UP BOUND     x86       1
 UP BOUND     x112      1
 UP BOUND     x124      1
 UP BOUND     x131      1
 UP BOUND     x159      1
 UP BOUND     x165      1
 UP BOUND     x167      1
 UP BOUND     x170      1
 UP BOUND     x172      1
 UP BOUND     x185      1
 UP BOUND     x188      1
 UP BOUND     x206      1
 UP BOUND     x209      1
 UP BOUND     x237      1
 UP BOUND     x242      1
 UP BOUND     x246      1
 UP BOUND     x265      1
 UP BOUND     x266      1
 UP BOUND     x271      1
 UP BOUND     x308      1
 UP BOUND     x326      1
 UP BOUND     x338      1
 UP BOUND     x381      1
 UP BOUND     x413      1
 UP BOUND     x419      1
 UP BOUND     x455      1
 UP BOUND     x487      1
 UP BOUND     x520      1
 UP BOUND     x534      1
 UP BOUND     x537      1
 UP BOUND     x550      1
 UP BOUND     x562      1
 UP BOUND     x592      1
 UP BOUND     x610      1
 UP BOUND     x634      1
 UP BOUND     x705      1
 UP BOUND     x716      1
 UP BOUND     x731      1
 UP BOUND     x737      1
 UP BOUND     x741      1
 UP BOUND     x758      1
 UP BOUND     x834      1
 UP BOUND     x850      1
 UP BOUND     x856      1
 UP BOUND     x865      1
 UP BOUND     x866      1
 UP BOUND     x871      1
 UP BOUND     x890      1
 UP BOUND     x906      1
 UP BOUND     x912      1
 UP BOUND     x948      1
 UP BOUND     x981      1
 UP BOUND     x983      1
 UP BOUND     x1000     1
 UP BOUND     x1024     1
 UP BOUND     x1070     1
 UP BOUND     x1075     1
 UP BOUND     x1085     1
 UP BOUND     x1087     1
 UP BOUND     x1105     1
 UP BOUND     x1127     1
 UP BOUND     x1129     1
 UP BOUND     x1143     1
 UP BOUND     x1146     1
 UP BOUND     x1158     1
 UP BOUND     x1168     1
 UP BOUND     x1179     1
 UP BOUND     x1183     1
 UP BOUND     x1187     1
 UP BOUND     x1190     1
 UP BOUND     x1209     1
 UP BOUND     x1210     1
 UP BOUND     x1211     1
 UP BOUND     x1229     1
 UP BOUND     x1246     1
 UP BOUND     x1260     1
 UP BOUND     x1291     1
 UP BOUND     x1300     1
 UP BOUND     x1330     1
 UP BOUND     x1348     1
 UP BOUND     x1370     1
 UP BOUND     x1405     1
 UP BOUND     x1412     1
 UP BOUND     x1427     1
 UP BOUND     x1429     1
 UP BOUND     x1431     1
 UP BOUND     x1443     1
 UP BOUND     x1445     1
 UP BOUND     x1458     1
 UP BOUND     x1467     1
 UP BOUND     x1490     1
 UP BOUND     x1545     1
 UP BOUND     x1589     1
 UP BOUND     x1616     1
 UP BOUND     x1626     1
 UP BOUND     x1630     1
 UP BOUND     x1639     1
 UP BOUND     x1667     1
 UP BOUND     x1706     1
 UP BOUND     x1708     1
 UP BOUND     x1734     1
 UP BOUND     x1762     1
 UP BOUND     x1786     1
 UP BOUND     x1822     1
 UP BOUND     x1834     1
 UP BOUND     x1847     1
 UP BOUND     x1868     1
 UP BOUND     x1910     1
 UP BOUND     x1934     1
 UP BOUND     x1935     1
 UP BOUND     x1941     1
 UP BOUND     x1947     1
 UP BOUND     x2002     1
 UP BOUND     x2006     1
 UP BOUND     x2012     1
 UP BOUND     x2027     1
 UP BOUND     x2034     1
 UP BOUND     x2041     1
 UP BOUND     x2062     1
 UP BOUND     x2066     1
 UP BOUND     x2072     1
 UP BOUND     x2074     1
 UP BOUND     x2091     1
 UP BOUND     x2094     1
 UP BOUND     x2102     1
 UP BOUND     x2117     1
 UP BOUND     x2121     1
 UP BOUND     x2126     1
 UP BOUND     x2137     1
 UP BOUND     x2138     1
 UP BOUND     x2148     1
 UP BOUND     x2150     1
 UP BOUND     x2154     1
 UP BOUND     x2156     1
 UP BOUND     x2173     1
 UP BOUND     x2191     1
 UP BOUND     x2209     1
 UP BOUND     x2210     1
 UP BOUND     x2225     1
 UP BOUND     x2238     1
 UP BOUND     x2239     1
 UP BOUND     x2241     1
 UP BOUND     x2249     1
 UP BOUND     x2266     1
 UP BOUND     x2274     1
 UP BOUND     x2284     1
 UP BOUND     x2286     1
 UP BOUND     x2298     1
 UP BOUND     x2301     1
 UP BOUND     x2311     1
 UP BOUND     x2354     1
 UP BOUND     x2406     1
 UP BOUND     x2442     1
 UP BOUND     x2463     1
 UP BOUND     x2475     1
 UP BOUND     x2476     1
 UP BOUND     x2483     1
 UP BOUND     x2492     1
 UP BOUND     x2520     1
 UP BOUND     x2525     1
 UP BOUND     x2541     1
 UP BOUND     x2559     1
 UP BOUND     x2573     1
 UP BOUND     x2590     1
 UP BOUND     x2599     1
 UP BOUND     x2609     1
 UP BOUND     x2610     1
 UP BOUND     x2623     1
 UP BOUND     x2627     1
 UP BOUND     x2629     1
 UP BOUND     x2659     1
 UP BOUND     x2663     1
 UP BOUND     x2674     1
 UP BOUND     x2679     1
 UP BOUND     x2681     1
 UP BOUND     x2696     1
 UP BOUND     x2711     1
 UP BOUND     x2715     1
 UP BOUND     x2717     1
 UP BOUND     x2730     1
 UP BOUND     x2733     1
 UP BOUND     x2734     1
 UP BOUND     x2737     1
 UP BOUND     x2745     1
 UP BOUND     x2746     1
 UP BOUND     x2768     1
 UP BOUND     x2800     1
 UP BOUND     x2803     1
 UP BOUND     x2838     1
 UP BOUND     x2847     1
 UP BOUND     x2876     1
 UP BOUND     x2914     1
 UP BOUND     x2939     1
 UP BOUND     x2987     1
 UP BOUND     x3004     1
 UP BOUND     x3012     1
 UP BOUND     x3027     1
 UP BOUND     x3063     1
 UP BOUND     x3085     1
 UP BOUND     x3094     1
 UP BOUND     x3104     1
 UP BOUND     x3117     1
 UP BOUND     x3138     1
 UP BOUND     x3153     1
 UP BOUND     x3167     1
 UP BOUND     x3182     1
ENDATA
